Running MiniSat on FULL_RUN_MINISAT\dafc03ea784fee849febca7b64230558-pcmax-scheduling-m30-14113-167638-UNSAT.sanitized.cnf... 
============================[ Problem Statistics ]=============================
|                                                                             |
|  Number of variables:         14112                                         |
|  Number of clauses:          166497                                         |
|  Parse time:                   0.24 s                                       |
|                                                                             |
============================[ Search Statistics ]==============================
| Conflicts |          ORIGINAL         |          LEARNT          | Progress |
|           |    Vars  Clauses Literals |    Limit  Clauses Lit/Cl |          |
===============================================================================
|       100 |   13918   166426   435977 |    61022      100      4 |  1.375 % |
|       250 |   13918   166426   435977 |    67125      250     14 |  1.375 % |
|       475 |   13918   166426   435977 |    73837      475     36 |  1.375 % |
|       812 |   13918   166426   435977 |    81221      812     52 |  1.375 % |
|      1318 |   13914   166426   435977 |    89343     1317     53 |  1.403 % |
|      2077 |   13914   166426   435977 |    98277     2076     63 |  1.403 % |
|      3216 |   13914   166238   435590 |   108105     3208     77 |  1.403 % |
|      4924 |   13912   166227   435567 |   118916     4911     87 |  1.417 % |
|      7486 |   13912   166227   435567 |   130807     7473     99 |  1.417 % |
|     11330 |   13912   166201   435514 |   143888    11312    103 |  1.417 % |
|     17096 |   13912   166201   435514 |   158277    17078    105 |  1.417 % |
|     25745 |   13910   166171   435453 |   174105    25718    110 |  1.431 % |
|     38719 |   13910   166139   435388 |   191515    38687    112 |  1.431 % |
ERROR: MiniSat process not found for FULL_RUN_MINISAT\e481a97a93fd6b4303f39024d19c2867-j3037_1_gmto_b.cnf 
Finished MiniSat on FULL_RUN_MINISAT\e481a97a93fd6b4303f39024d19c2867-j3037_1_gmto_b.cnf 
